NAME : grid
TYPE : TSP
DIMENSION : 50
EDGE_WEIGHT_TYPE : EUC_2D
NODE_COORD_SECTION
1 984689 386338
2 769758 564811
3 148025 197886
4 33909 250432
5 270714 85218
6 350775 256340
7 137089 308717
8 441095 839053
9 621610 218356
10 414963 396229
11 838057 941633
12 983728 721860
13 62335 443841
14 271099 3753
15 784917 713138
16 73599 587456
17 42353 83000
18 92627 737772
19 593822 682843
20 621610 396229
21 70730 221216
22 425825 60238
23 731256 193135
24 460825 736469
25 255170 310231
26 822248 879619
27 303897 419748
28 109417 169764
29 886976 544984
30 476440 550887
31 229505 516202
32 614031 550887
33 694886 922363
34 152069 989729
35 964355 94794
36 684569 289499
37 789931 954261
38 538609 905310
39 604973 960924
40 735389 264203
41 907608 283640
42 508953 928311
43 406225 86460
44 641835 665765
45 803780 624819
46 738244 670760
47 757630 591290
48 853205 246609
49 691222 302294
50 972227 743507
EOF
